NAME: tsp45_24
COMMENT: 45-tsp problem (Padberg/Rinaldi)
TYPE: TSP
DIMENSION: 45
EDGE_WEIGHT_TYPE : EUC_2D
NODE_COORD_SECTION
1 5 29
2 13 34
3 16 29
4 31 34
5 36 11
6 18 11
7 22 36
8 24 24
9 34 11
10 20 21
11 18 39
12 2 3
13 1 16
14 7 37
15 26 37
16 13 12
17 26 26
18 26 19
19 24 34
20 36 2
21 20 18
22 4 30
23 9 18
24 22 17
25 15 10
26 36 29
27 8 20
28 2 22
29 39 40
30 13 23
31 9 37
32 1 34
33 2 26
34 21 8
35 19 32
36 3 35
37 38 11
38 12 31
39 7 10
40 0 20
41 10 4
42 39 2
43 31 17
44 9 26
45 11 20
